set VV := 0 1 2 3 4 5 6 7 8 9 10 11 12 13 14 15 16 17 18 19 20 21 ;
set VS := 0 1 2 3 4 5 6 7 8 9 10 11 12 13 14 15 16 17 18 19 20 21 22 23 24 25 26 27 28 29 30 31 32 33 34 35 36 37 38 39 40 41 42 43 44 45 46 47 48 ;
param cv := 
0 21
1 12
2 10
3 21
4 14
5 19
6 10
7 14
8 21
9 19
10 19
11 18
12 11
13 14
14 12
15 17
16 14
17 18
18 13
19 19
20 18
21 20
;
param cs := 
0 29
1 40
2 35
3 37
4 30
5 26
6 25
7 37
8 24
9 34
10 23
11 34
12 26
13 37
14 27
15 21
16 33
17 38
18 35
19 25
20 35
21 29
22 24
23 24
24 33
25 35
26 27
27 21
28 28
29 28
30 23
31 28
32 38
33 34
34 21
35 29
36 32
37 27
38 22
39 22
40 39
41 30
42 31
43 26
44 25
45 28
46 24
47 24
48 24
;
param bv:	 0 1 2 3 4 5 6 7 8 9 10 11 12 13 14 15 16 17 18 19 20 21 := 
		0 0 0 0 0 21 0 0 0 0 0 0 0 0 25 0 0 0 0 0 0 0 0 
		1 0 0 0 0 0 0 0 24 0 0 0 0 0 10 0 19 0 16 0 0 0 0 
		2 0 0 0 0 0 0 0 0 0 0 15 0 10 0 23 0 0 0 0 0 0 0 
		3 0 0 0 0 0 0 12 0 25 17 0 0 0 0 25 0 0 0 0 0 0 0 
		4 0 0 0 0 0 0 0 0 0 0 0 0 0 0 0 0 0 0 0 0 0 0 
		5 0 0 0 0 0 0 0 0 0 0 0 13 0 19 0 10 0 0 0 0 0 0 
		6 0 0 0 0 0 0 0 0 0 0 0 10 0 12 0 23 0 0 0 0 0 0 
		7 0 0 0 0 0 0 0 0 13 0 0 0 0 0 0 0 0 17 0 0 0 0 
		8 0 0 0 0 0 0 0 0 0 21 0 0 0 0 0 0 0 0 0 0 0 0 
		9 0 0 0 0 0 0 0 0 0 0 0 0 14 0 0 0 19 0 0 0 16 0 
		10 0 0 0 0 0 0 0 0 0 0 0 0 20 0 0 0 0 0 0 0 0 0 
		11 0 0 0 0 0 0 0 0 0 0 0 0 0 0 0 0 0 0 16 0 24 0 
		12 0 0 0 0 0 0 0 0 0 0 0 0 0 0 0 0 0 0 0 0 0 0 
		13 0 0 0 0 0 0 0 0 0 0 0 0 0 0 0 0 0 25 0 0 0 14 
		14 0 0 0 0 0 0 0 0 0 0 0 0 0 0 0 0 0 0 20 17 0 0 
		15 0 0 0 0 0 0 0 0 0 0 0 0 0 0 0 0 0 0 0 0 0 0 
		16 0 0 0 0 0 0 0 0 0 0 0 0 0 0 0 0 0 0 0 0 0 0 
		17 0 0 0 0 0 0 0 0 0 0 0 0 0 0 0 0 0 0 0 0 0 0 
		18 0 0 0 0 0 0 0 0 0 0 0 0 0 0 0 0 0 0 0 10 0 0 
		19 0 0 0 0 0 0 0 0 0 0 0 0 0 0 0 0 0 0 0 0 0 0 
		20 0 0 0 0 0 0 0 0 0 0 0 0 0 0 0 0 0 0 0 0 0 0 
		21 0 0 0 0 0 0 0 0 0 0 0 0 0 0 0 0 0 0 0 0 0 0 
;
param bs:	 0 1 2 3 4 5 6 7 8 9 10 11 12 13 14 15 16 17 18 19 20 21 22 23 24 25 26 27 28 29 30 31 32 33 34 35 36 37 38 39 40 41 42 43 44 45 46 47 48 := 
		0 0 21 0 0 0 0 0 0 0 0 0 0 28 35 0 0 0 0 0 0 0 20 0 0 0 0 0 20 0 0 0 0 0 0 0 0 0 23 0 0 0 0 0 0 0 0 0 0 0 
		1 21 0 0 0 0 0 0 0 0 0 0 0 0 0 0 0 0 0 0 0 0 0 0 0 0 0 21 0 0 0 0 37 0 0 0 0 0 33 0 0 0 21 0 22 0 30 0 20 0 
		2 0 0 0 0 0 22 0 0 0 0 0 0 0 0 0 0 0 28 0 0 0 0 0 29 0 0 0 0 0 0 0 0 0 0 0 0 0 40 0 0 0 0 0 0 0 0 0 0 0 
		3 0 0 0 0 0 0 0 0 38 0 0 0 0 0 0 0 0 0 0 0 21 0 0 0 0 0 0 0 36 0 0 0 0 0 0 0 0 0 29 0 0 0 0 0 40 0 0 0 0 
		4 0 0 0 0 0 36 0 0 0 0 0 0 0 0 0 0 0 0 0 0 0 0 0 0 39 33 0 0 0 0 0 40 0 0 0 36 0 0 0 0 0 0 0 21 0 0 0 0 0 
		5 0 0 22 0 36 0 0 0 0 0 0 0 0 0 0 0 0 0 0 0 0 0 0 0 0 0 0 23 0 0 0 0 0 0 0 0 0 0 0 0 0 0 0 0 0 0 0 0 0 
		6 0 0 0 0 0 0 0 0 29 0 0 0 0 35 0 0 0 0 0 0 0 0 0 0 0 0 0 0 0 0 0 0 30 0 35 0 0 0 0 38 0 0 0 0 24 0 0 0 0 
		7 0 0 0 0 0 0 0 0 40 0 0 0 0 0 0 0 27 0 0 0 0 0 0 0 0 0 0 0 0 22 0 0 0 0 0 0 0 39 0 0 0 0 0 0 0 0 0 0 0 
		8 0 0 0 38 0 0 29 40 0 0 0 0 0 0 0 0 0 0 0 31 23 0 0 0 22 0 0 0 0 0 0 0 0 0 0 0 0 0 0 0 0 0 0 0 0 0 0 0 35 
		9 0 0 0 0 0 0 0 0 0 0 0 0 0 0 0 0 0 0 0 0 0 0 22 0 0 0 0 0 0 0 0 0 0 0 0 0 0 0 0 0 0 40 0 0 0 0 0 0 0 
		10 0 0 0 0 0 0 0 0 0 0 0 25 0 0 0 0 0 0 0 0 0 33 0 0 24 0 0 0 22 0 28 0 0 0 0 0 0 0 0 0 0 0 0 0 0 0 0 30 0 
		11 0 0 0 0 0 0 0 0 0 0 25 0 0 0 0 0 0 0 0 0 0 35 37 0 0 0 0 35 0 0 0 0 0 0 0 0 0 0 0 0 0 0 0 0 0 0 33 0 0 
		12 28 0 0 0 0 0 0 0 0 0 0 0 0 40 0 0 0 0 0 0 0 0 0 0 0 0 0 0 0 0 0 35 0 0 27 21 0 0 0 36 0 0 0 0 0 25 0 0 0 
		13 35 0 0 0 0 0 35 0 0 0 0 0 40 0 0 0 0 0 0 0 0 0 0 0 0 0 0 0 0 0 0 0 0 0 0 0 0 0 0 0 0 0 0 0 0 0 23 0 0 
		14 0 0 0 0 0 0 0 0 0 0 0 0 0 0 0 0 0 0 0 32 0 0 0 0 0 0 0 0 0 0 0 0 0 32 0 0 0 0 28 0 0 0 0 0 0 0 0 0 0 
		15 0 0 0 0 0 0 0 0 0 0 0 0 0 0 0 0 0 0 0 0 0 0 0 0 0 0 0 0 0 0 0 0 0 0 0 27 0 33 0 0 0 0 0 0 0 0 0 0 0 
		16 0 0 0 0 0 0 0 27 0 0 0 0 0 0 0 0 0 0 0 0 0 0 0 0 0 0 0 0 27 0 38 0 0 37 0 0 0 0 36 0 0 0 0 0 0 0 0 0 0 
		17 0 0 28 0 0 0 0 0 0 0 0 0 0 0 0 0 0 0 0 0 0 0 0 0 0 0 0 0 0 31 0 0 0 0 0 0 0 29 0 0 0 0 0 0 0 0 0 0 0 
		18 0 0 0 0 0 0 0 0 0 0 0 0 0 0 0 0 0 0 0 0 0 0 0 0 0 0 0 0 0 0 0 0 20 0 24 0 0 0 0 0 0 0 0 0 0 0 0 0 0 
		19 0 0 0 0 0 0 0 0 31 0 0 0 0 0 32 0 0 0 0 0 0 0 0 0 0 0 0 22 0 0 0 0 0 0 0 0 0 0 0 22 0 0 0 0 0 0 0 0 0 
		20 0 0 0 21 0 0 0 0 23 0 0 0 0 0 0 0 0 0 0 0 0 0 0 0 0 0 0 0 40 0 31 0 0 0 0 0 0 0 0 0 0 0 0 0 0 0 0 0 0 
		21 20 0 0 0 0 0 0 0 0 0 33 35 0 0 0 0 0 0 0 0 0 0 0 0 0 0 0 21 0 0 0 0 0 0 0 0 0 22 0 0 0 0 0 0 0 0 0 0 0 
		22 0 0 0 0 0 0 0 0 0 22 0 37 0 0 0 0 0 0 0 0 0 0 0 0 0 0 0 0 0 0 0 0 0 0 0 0 0 31 0 0 0 0 0 0 0 0 0 0 0 
		23 0 0 29 0 0 0 0 0 0 0 0 0 0 0 0 0 0 0 0 0 0 0 0 0 27 0 0 0 0 0 0 0 0 0 0 0 0 0 0 0 0 0 0 0 0 0 0 0 0 
		24 0 0 0 0 39 0 0 0 22 0 24 0 0 0 0 0 0 0 0 0 0 0 0 27 0 0 0 0 0 0 0 0 0 0 27 0 0 0 25 0 0 0 0 0 0 0 0 0 28 
		25 0 0 0 0 33 0 0 0 0 0 0 0 0 0 0 0 0 0 0 0 0 0 0 0 0 0 0 0 0 0 0 0 0 23 0 0 0 0 0 0 0 0 0 0 0 0 0 0 0 
		26 0 21 0 0 0 0 0 0 0 0 0 0 0 0 0 0 0 0 0 0 0 0 0 0 0 0 0 0 0 0 0 0 0 0 0 0 0 0 0 0 0 0 0 0 0 0 0 0 0 
		27 20 0 0 0 0 23 0 0 0 0 0 35 0 0 0 0 0 0 0 22 0 21 0 0 0 0 0 0 0 0 0 0 0 0 0 0 0 0 35 0 0 0 0 0 0 22 0 0 0 
		28 0 0 0 36 0 0 0 0 0 0 22 0 0 0 0 0 27 0 0 0 40 0 0 0 0 0 0 0 0 0 30 0 0 34 0 0 0 0 0 0 0 0 0 0 0 0 0 0 0 
		29 0 0 0 0 0 0 0 22 0 0 0 0 0 0 0 0 0 31 0 0 0 0 0 0 0 0 0 0 0 0 35 0 38 0 0 0 0 0 0 0 0 0 0 0 0 0 0 0 33 
		30 0 0 0 0 0 0 0 0 0 0 28 0 0 0 0 0 38 0 0 0 31 0 0 0 0 0 0 0 30 35 0 0 0 0 0 0 0 0 0 0 0 0 0 40 0 30 0 0 0 
		31 0 37 0 0 40 0 0 0 0 0 0 0 35 0 0 0 0 0 0 0 0 0 0 0 0 0 0 0 0 0 0 0 0 0 0 0 0 0 0 0 0 0 0 0 35 0 0 0 0 
		32 0 0 0 0 0 0 30 0 0 0 0 0 0 0 0 0 0 0 20 0 0 0 0 0 0 0 0 0 0 38 0 0 0 0 0 0 0 24 0 0 0 0 0 0 0 0 0 0 0 
		33 0 0 0 0 0 0 0 0 0 0 0 0 0 0 32 0 37 0 0 0 0 0 0 0 0 23 0 0 34 0 0 0 0 0 33 0 0 0 0 0 0 0 0 0 0 0 25 22 0 
		34 0 0 0 0 0 0 35 0 0 0 0 0 27 0 0 0 0 0 24 0 0 0 0 0 27 0 0 0 0 0 0 0 0 33 0 0 0 0 0 0 0 0 0 0 0 0 0 0 0 
		35 0 0 0 0 36 0 0 0 0 0 0 0 21 0 0 27 0 0 0 0 0 0 0 0 0 0 0 0 0 0 0 0 0 0 0 0 0 0 0 0 0 0 0 0 0 0 0 0 0 
		36 0 0 0 0 0 0 0 0 0 0 0 0 0 0 0 0 0 0 0 0 0 0 0 0 0 0 0 0 0 0 0 0 0 0 0 0 0 27 0 0 0 0 0 0 0 0 0 32 0 
		37 23 33 40 0 0 0 0 39 0 0 0 0 0 0 0 33 0 29 0 0 0 22 31 0 0 0 0 0 0 0 0 0 24 0 0 0 27 0 0 0 0 0 0 0 0 0 0 0 29 
		38 0 0 0 29 0 0 0 0 0 0 0 0 0 0 28 0 36 0 0 0 0 0 0 0 25 0 0 35 0 0 0 0 0 0 0 0 0 0 0 0 0 32 0 0 0 0 0 0 0 
		39 0 0 0 0 0 0 38 0 0 0 0 0 36 0 0 0 0 0 0 22 0 0 0 0 0 0 0 0 0 0 0 0 0 0 0 0 0 0 0 0 0 0 0 0 0 23 0 0 0 
		40 0 0 0 0 0 0 0 0 0 0 0 0 0 0 0 0 0 0 0 0 0 0 0 0 0 0 0 0 0 0 0 0 0 0 0 0 0 0 0 0 0 22 35 0 0 24 0 0 22 
		41 0 21 0 0 0 0 0 0 0 40 0 0 0 0 0 0 0 0 0 0 0 0 0 0 0 0 0 0 0 0 0 0 0 0 0 0 0 0 32 0 22 0 0 0 25 0 0 0 0 
		42 0 0 0 0 0 0 0 0 0 0 0 0 0 0 0 0 0 0 0 0 0 0 0 0 0 0 0 0 0 0 0 0 0 0 0 0 0 0 0 0 35 0 0 0 0 0 0 0 0 
		43 0 22 0 0 21 0 0 0 0 0 0 0 0 0 0 0 0 0 0 0 0 0 0 0 0 0 0 0 0 0 40 0 0 0 0 0 0 0 0 0 0 0 0 0 0 0 0 0 0 
		44 0 0 0 40 0 0 24 0 0 0 0 0 0 0 0 0 0 0 0 0 0 0 0 0 0 0 0 0 0 0 0 35 0 0 0 0 0 0 0 0 0 25 0 0 0 0 29 0 0 
		45 0 30 0 0 0 0 0 0 0 0 0 0 25 0 0 0 0 0 0 0 0 0 0 0 0 0 0 22 0 0 30 0 0 0 0 0 0 0 0 23 24 0 0 0 0 0 0 0 0 
		46 0 0 0 0 0 0 0 0 0 0 0 33 0 23 0 0 0 0 0 0 0 0 0 0 0 0 0 0 0 0 0 0 0 25 0 0 0 0 0 0 0 0 0 0 29 0 0 0 0 
		47 0 20 0 0 0 0 0 0 0 0 30 0 0 0 0 0 0 0 0 0 0 0 0 0 0 0 0 0 0 0 0 0 0 22 0 0 32 0 0 0 0 0 0 0 0 0 0 0 21 
		48 0 0 0 0 0 0 0 0 35 0 0 0 0 0 0 0 0 0 0 0 0 0 0 0 28 0 0 0 0 33 0 0 0 0 0 0 0 29 0 0 22 0 0 0 0 0 0 21 0 
;
